Version identifier: 12.10.0.0 | 2019-11-26 | 843d4de
CPXPARAM_WorkMem                                 28672
Tried aggregator 2 times.
Aggregator did 40 substitutions.
Reduced MIP has 184 rows, 240 columns, and 888 nonzeros.
Reduced MIP has 240 binaries, 0 generals, 0 SOSs, and 0 indicators.
Presolve time = 0,00 sec. (0,82 ticks)
Found incumbent of value 160,000000 after 0,00 sec. (1,54 ticks)
Probing time = 0,00 sec. (0,28 ticks)
Tried aggregator 1 time.
Detecting symmetries...
MIP Presolve eliminated 32 rows and 0 columns.
MIP Presolve added 64 rows and 0 columns.
Reduced MIP has 216 rows, 240 columns, and 920 nonzeros.
Reduced MIP has 240 binaries, 0 generals, 0 SOSs, and 0 indicators.
Presolve time = 0,00 sec. (1,00 ticks)
Probing time = 0,00 sec. (0,28 ticks)
Clique table members: 588.
MIP emphasis: balance optimality and feasibility.
MIP search method: dynamic search.
Parallel mode: deterministic, using up to 16 threads.
Root relaxation solution time = 0,00 sec. (0,70 ticks)

        Nodes                                         Cuts/
   Node  Left     Objective  IInf  Best Integer    Best Bound    ItCnt     Gap

*     0+    0                          160,0000        0,0000           100,00%
*     0+    0                          102,0000        0,0000           100,00%
*     0+    0                           99,0000        0,0000           100,00%
*     0+    0                           96,0000        0,0000           100,00%
      0     0       40,0000   137       96,0000       40,0000       82   58,33%
*     0+    0                           95,0000       40,0000            57,89%
      0     0       40,0000   137       95,0000     Cuts: 154      164   57,89%
      0     0       40,0000   137       95,0000     Cuts: 154      259   57,89%
*     0+    0                           94,0000       40,0000            57,45%
*     0+    0                           93,0000       40,0000            56,99%
*     0+    0                           92,0000       40,0000            56,52%
*     0+    0                           87,0000       40,0000            54,02%
      0     2       40,0000   152       87,0000       40,0000      259   54,02%
Elapsed time = 0,08 sec. (36,32 ticks, tree = 0,02 MB, solutions = 9)
*    51+   12                           86,0000       40,0000            53,49%

Performing restart 1

Repeating presolve.
Tried aggregator 1 time.
Reduced MIP has 216 rows, 240 columns, and 920 nonzeros.
Reduced MIP has 240 binaries, 0 generals, 0 SOSs, and 0 indicators.
Presolve time = 0,00 sec. (1,02 ticks)
Tried aggregator 1 time.
Reduced MIP has 216 rows, 240 columns, and 920 nonzeros.
Reduced MIP has 240 binaries, 0 generals, 0 SOSs, and 0 indicators.
Presolve time = 0,00 sec. (1,20 ticks)
Represolve time = 0,01 sec. (5,71 ticks)
   4504     0       40,7443   240       86,0000      Cuts: 12    82974   37,19%
   4504     0       41,4234   240       86,0000       Cuts: 4    83004   37,19%
   4504     0       41,8141   240       86,0000       Cuts: 6    83075   37,19%
   4504     0       42,0423   240       86,0000       Cuts: 6    83131   37,19%
   4504     2       42,0423   240       86,0000       54,0148    83131   37,19%
   5291   418       68,6270   160       86,0000       54,0148    99045   37,19%
   7281  1595       63,2779   199       86,0000       54,0148   139319   37,19%
  10527  4578        cutoff             86,0000       57,5253   221241   33,11%
  13597  6920       83,1599   125       86,0000       59,5008   283780   30,81%
  16756  9278       74,5361   164       86,0000       61,0302   351296   29,03%
  20406 12387       79,5620   147       86,0000       62,2359   437960   27,63%
  23991 14961        cutoff             86,0000       63,2355   508624   26,47%
  27356 17676        cutoff             86,0000       64,1977   583585   25,35%
  42159 28262       81,9485    38       86,0000       66,7422   936454   22,39%
Elapsed time = 3,66 sec. (3197,14 ticks, tree = 80,14 MB, solutions = 11)
* 49434 33397      integral     0       85,0000       67,6717  1135947   20,39%
  52462 32771        cutoff             85,0000       67,6717  1202039   20,39%
  65194 40297       81,7485   111       85,0000       69,8602  1512639   17,81%
  78310 46763       83,5816    80       85,0000       71,1489  1827850   16,30%

Performing restart 2

Repeating presolve.
Tried aggregator 1 time.
Reduced MIP has 216 rows, 240 columns, and 920 nonzeros.
Reduced MIP has 240 binaries, 0 generals, 0 SOSs, and 0 indicators.
Presolve time = 0,00 sec. (1,02 ticks)
Tried aggregator 1 time.
Reduced MIP has 216 rows, 240 columns, and 920 nonzeros.
Reduced MIP has 240 binaries, 0 generals, 0 SOSs, and 0 indicators.
Presolve time = 0,00 sec. (1,20 ticks)
Represolve time = 0,06 sec. (32,84 ticks)
  88930     0       42,8471   240       85,0000       Cuts: 3  2159977   15,10%
  88930     0       43,3975   240       85,0000      Cuts: 12  2160061   15,10%
  88930     0       43,7636   240       85,0000       Cuts: 4  2160109   15,10%
  88930     0       44,0885   240       85,0000      Cuts: 11  2160184   15,10%
  88930     0       44,1757   240       85,0000       Cuts: 5  2160235   15,10%
  88930     0       44,2720   240       85,0000       Cuts: 8  2160305   15,10%
  88930     2       44,2720   240       85,0000       72,1677  2160305   15,10%
  93459  3298        cutoff             85,0000       72,1677  2322864   15,10%
 103729 10490        cutoff             85,0000       72,1677  2692098   15,10%
 114045 16653       77,4273   146       85,0000       72,1677  3052310   15,10%
*121390+20461                           84,0000       72,1677            14,09%
 124892 19998       76,9090   160       84,0000       72,5884  3423905   13,59%
 135497 23136       81,5298   124       84,0000       74,3056  3823605   11,54%
 146503 24591        cutoff             84,0000       75,7080  4145429    9,87%
Elapsed time = 15,85 sec. (13054,00 ticks, tree = 9,17 MB, solutions = 13)
*149138+24807                           83,0000       76,0299             8,40%
 155421 18795        cutoff             83,0000       77,3552  4536757    6,80%
 168967 10181        cutoff             83,0000       79,9864  4943426    3,63%

Clique cuts applied:  39
Cover cuts applied:  533
Flow cuts applied:  1
Mixed integer rounding cuts applied:  10
Zero-half cuts applied:  8
Lift and project cuts applied:  3
Gomory fractional cuts applied:  39

Root node processing (before b&c):
  Real time             =    0,08 sec. (36,25 ticks)
Parallel b&c, 16 threads:
  Real time             =   19,65 sec. (15358,45 ticks)
  Sync time (average)   =    4,57 sec.
  Wait time (average)   =    0,04 sec.
                          ------------
Total (root+branch&cut) =   19,73 sec. (15394,71 ticks)
